TCS_Benchmarks/redos_fix/snort3_output_distinct_2148_2147_0_0.txt
.*
(.*)([aA][sS][pP][nN]\/[cC][gG][iI]-[bB][iI][nN]\/)(.*)
.*